B2Mg1 #191 - (B2Mg1_ICSD_155348) - B2Mg1
1.000000
   1.53643228674222  -2.66117878302676   0.00000000000000
   1.53637174776880   2.66114383083416   0.00000000000000
   0.00000000000000   0.00000000000000   3.53240689281277
2 1 
Direct(3) [A2B1] 
   0.66668005383358   0.33336010766717   0.50000000000000  B     
   0.33331994616642   0.66663989233283   0.50000000000000  B     
   0.00000000000000   0.00000000000000   0.00000000000000  Mg 
